   Na                                   
   17.542902809185136     
     1.0000000000000000    0.0000000000000000    0.0000000000000000
     0.0000000000000000    1.0000000000000000    0.0000000000000000
     0.0000000000000000    0.0000000000000000    1.0000000000000000
   Na
   128
Direct
  0.1399596695242242  0.6768509554087977  0.8991222767258734
  0.8107999196181509  0.8568585732489918  0.9034456267611367
  0.5780952942492448  0.7781711327027049  0.7954597565140720
  0.6614672961568200  0.8908425533952840  0.1382128755869856
  0.9569661474021490  0.5309958004120647  0.1774423085351771
  0.1846537220384766  0.5550011646286783  0.2801930607077195
  0.7323023972413197  0.1504891967942908  0.3424628573044159
  0.0590309503672275  0.9429088242049848  0.3179003016914883
  0.7211621183218919  0.4589918161237395  0.1929116466170701
  0.0958273160550859  0.9241265246930039  0.7726908417960319
  0.5054536018951463  0.7999205653637116  0.4515172218958229
  0.1725233074585964  0.8087091188835316  0.3711867427116712
  0.3093516381544012  0.8782628244512410  0.0397251874015285
  0.8861924839666907  0.0296716546941817  0.4131216560149046
  0.8087442961424242  0.8350614282472513  0.4830348173071617
  0.6132025315586684  0.9753194653203537  0.6770577712965651
  0.1575846946037618  0.8830694861831001  0.9506245147401871
  0.1037026551446131  0.5776951974158495  0.4568180616027227
  0.1419226309376200  0.7610681160641886  0.5569033287486882
  0.3433237828962367  0.8762499591055573  0.7065530736123676
  0.9452506021673049  0.7074468874264426  0.0972333708276583
  0.6782949595747112  0.1301981252452322  0.7737690993452143
  0.6593721060823357  0.5839612043689689  0.0134333786515655
  0.6421300222557861  0.1245275323044295  0.1331564693666899
  0.3768036078919819  0.2022029533935879  0.9004377800706889
  0.5263308056049908  0.7720056580989292  0.6216480868779365
  0.8260336209886889  0.9957611983162477  0.7938875318657312
  0.3945741212127878  0.7780051304682868  0.8604890553732726
  0.9940915690492578  0.8443177258465666  0.4478622103405991
  0.7462097423876728  0.3199416483610054  0.6172559021965195
  0.4089586953622458  0.6414628500155246  0.6837667558836282
  0.3351411607924312  0.3813600474456190  0.9568569533763223
  0.2551245351427666  0.0006648773545224  0.4169403456961324
  0.7286689692698337  0.3035508669610751  0.0717698559871912
  0.8525412721964385  0.5972631932278762  0.3764512098045132
  0.4380384192763614  0.2651429306912099  0.2854746904359112
  0.6331325872619495  0.8907274508992304  0.3672719869415416
  0.2562174213613065  0.5202169039241773  0.6122818224558427
  0.1532038194281220  0.7643971174257637  0.7235003124974225
  0.6814305638738873  0.0055495143601057  0.4942534270586895
  0.5570234842286046  0.1641448608685189  0.6106060681002599
  0.9719022893954145  0.8654028977515732  0.6710176045868576
  0.3951705634472795  0.6059452223968881  0.3023325662466176
  0.7368549630684318  0.6818828176394592  0.5050391680983015
  0.2183440570606442  0.3420800596981229  0.8133793369848039
  0.6416201227984111  0.2968813725463991  0.2740317846596792
  0.0716485922221793  0.2028412723994444  0.1682774411163373
  0.8542523266945177  0.2377328920363295  0.2237160614441437
  0.4308955543342003  0.4177533378465755  0.1577457799278752
  0.4659870519509483  0.9978318036064610  0.5200182920316331
  0.9868740762002027  0.1597265984235839  0.3368029611382509
  0.2598111829760021  0.2520249145078366  0.1085650827671706
  0.3287802513782567  0.9763474302069080  0.8782730058872547
  0.9504511043527677  0.7308349184896263  0.8095412871446048
  0.9935320429346461  0.3756942480092718  0.8778577029205995
  0.8301228544445658  0.9814406627890465  0.6265199039490960
  0.1131207788408053  0.9510642153031841  0.5479217555140816
  0.6907990928389496  0.7546695907164417  0.0007002176062403
  0.3715014572053424  0.4369605541688595  0.4542543744739508
  0.5122554636094269  0.3800626932457143  0.5745504289928877
  0.0298653269952749  0.3841731160633577  0.3249196440756097
  0.1292737101665820  0.8319870587505701  0.1306027359649286
  0.9362343315448886  0.8951281020858743  0.0705375799730644
  0.9313156415213264  0.1066204864923996  0.0712182565306334
  0.7481951695805029  0.6563370630716736  0.1965594113309140
  0.1410349931617041  0.6433962941566286  0.1252655123848239
  0.8739804992941088  0.4879027545849370  0.6978543278339963
  0.9093667616745846  0.3749001347509424  0.0799410178911966
  0.0159106986982417  0.7340382314275539  0.2803416377712576
  0.8498794056907673  0.8357163160055857  0.2690737158829050
  0.1159427679084297  0.1315131273420904  0.5080492056258267
  0.9014798934659659  0.2375314252857351  0.5330640973884094
  0.7058540630050233  0.4901961537004116  0.5370415542089536
  0.0211798108138853  0.5396109171383371  0.9809140758079704
  0.5044357543169848  0.7820983354768650  0.0426163095039063
  0.9339908105145251  0.6995318877007445  0.5796512630817341
  0.6924726160068823  0.5909155366634670  0.8258512820588014
  0.1088397254612636  0.4208221901299986  0.1343377806359576
  0.1135448433274480  0.0193823793094988  0.1035332380875166
  0.6059632617053360  0.4960837616453651  0.7107383137249027
  0.7624924309643343  0.1325178655794034  0.5959685067095604
  0.3753864237633922  0.1717913037714857  0.4723246519154686
  0.6144682641697089  0.2401832722721406  0.4547917131845422
  0.1722115917742394  0.4797660729749207  0.9545917037500607
  0.2634869572691174  0.5187183329349770  0.7840001307119830
  0.1871978377622615  0.2199215048042340  0.3671977319860326
  0.2749870949055890  0.0857235828601680  0.9925809155138746
  0.6126009105226372  0.6435136827289740  0.3731900720571398
  0.4285173996508385  0.8788992568361413  0.3251942423573491
  0.8303799777743516  0.6341466599450932  0.9507543101447152
  0.4330188543363064  0.0305009109148936  0.7478410623835257
  0.9861363686341315  0.0844360189255166  0.6488693193583132
  0.3090392368763304  0.7057123158933004  0.9573763666685893
  0.5496466350148703  0.1412734050124334  0.9537090634722825
  0.0952080751040261  0.2722511228159791  0.6540268505217206
  0.7328892493061328  0.7839971491784391  0.7048703831833117
  0.1989179919759926  0.0531211805566306  0.7916709644351589
  0.8477973343804329  0.0414943267719949  0.2152575713995979
  0.8742178745043070  0.1970227945920718  0.7305915007694643
  0.9356078721368816  0.4420218002656597  0.5274882476203611
  0.4823422426035371  0.5751199573628080  0.9119558128782731
  0.2004564601970656  0.3651645144154945  0.5227927628238248
  0.1446257152048741  0.2664267028311910  0.9727088293972814
  0.3654276534955455  0.2378703036074246  0.6796279126650009
  0.5237362712587182  0.2757734704886168  0.0735754566195979
  0.8415599817478961  0.3970287568346040  0.3764071852165303
  0.5897956200882024  0.9719779045621048  0.8782467687529797
  0.4295848206618503  0.4334983498870406  0.7400747219972881
  0.3525237586630700  0.5568393388737211  0.0619968853214591
  0.8037838841672443  0.4542723595580431  0.9528199042689276
  0.2846773114649108  0.0054090968954463  0.2280885319504292
  0.0828749012542386  0.5396908410416567  0.6831989064448915
  0.4193096156768549  0.0941150802958838  0.1199520156107326
  0.8184126748290175  0.1700947294922367  0.9182226774372961
  0.3006068684531343  0.8678332079866383  0.5324454265605428
  0.2766015584204065  0.3913699043991639  0.2397034603511191
  0.2825770362642394  0.0576193331663391  0.5949733224975916
  0.3036358226496663  0.6649475588279903  0.4677692351348803
  0.7046011089882085  0.3463597014798173  0.8087165535271114
  0.5114227204245018  0.5829172051459243  0.1213776364330789
  0.5380224037773614  0.0965824620627727  0.3216677914508161
  0.3229903466208895  0.7588394491411565  0.1732298076357948
  0.5219348774058400  0.2209251572182573  0.7849185076252450
  0.5965061437586596  0.7565839375731656  0.2293209066184255
  0.5188504838581257  0.9404003241139774  0.1637840712668507
  0.5184674779000363  0.5942789433977032  0.5421461129162854
  0.5914144652267846  0.4044560883609634  0.9541863178365635
  0.0255269742643044  0.0284168778367839  0.9064111657394822

 -0.47620416E-02  0.48565682E-02 -0.69424326E-03
 -0.45306883E-02  0.76683117E-02 -0.64864398E-02
  0.11196843E-02  0.65664158E-02 -0.95016879E-02
  0.32794514E-02 -0.13065245E-02 -0.79014176E-02
 -0.85851806E-02 -0.33704911E-02  0.45168033E-02
 -0.78960887E-02  0.89172422E-02  0.73776961E-03
 -0.16959926E-02 -0.12439391E-02 -0.10619345E-01
 -0.44891388E-03 -0.31683381E-02  0.84611932E-03
  0.36128092E-02  0.10400074E-01  0.11013508E-02
 -0.80093103E-02 -0.34304145E-03 -0.46208293E-02
  0.55467693E-02 -0.29281789E-02 -0.42059025E-03
  0.21293542E-02  0.26803938E-02  0.45465462E-02
 -0.30268381E-02  0.39838480E-02 -0.11242083E-02
 -0.15029308E-02 -0.32157662E-02  0.69730784E-02
 -0.59558116E-03  0.27817410E-02 -0.27232368E-02
 -0.36252093E-02  0.77806127E-02  0.95604671E-02
  0.67544576E-02 -0.39246453E-02  0.39167689E-02
  0.42464579E-02  0.26691210E-02 -0.15325341E-02
 -0.18607942E-02 -0.52156929E-03 -0.27810306E-02
  0.98746833E-02  0.38682193E-02 -0.10951842E-01
 -0.81456148E-02 -0.88721111E-03  0.38248043E-02
  0.50625482E-02 -0.22421763E-03  0.53364301E-02
 -0.10087191E-02 -0.36040490E-02  0.83480071E-02
  0.21711469E-02  0.27177062E-03 -0.26955523E-02
 -0.71197909E-02 -0.50550798E-02  0.11470429E-02
 -0.79157768E-02  0.15144375E-03  0.82895130E-02
  0.17256257E-04  0.51238751E-02  0.53006797E-02
  0.40883535E-02 -0.65114998E-03 -0.62690864E-02
  0.18241632E-03  0.15316957E-02 -0.47075687E-03
  0.81976553E-03 -0.93053495E-02 -0.10547288E-02
 -0.30007804E-02  0.95509820E-03 -0.77472398E-02
  0.12390539E-01 -0.58545162E-02 -0.56088258E-03
 -0.83407590E-02  0.32176318E-02 -0.34969804E-02
 -0.96463319E-03 -0.16399906E-02  0.56063631E-02
 -0.49479796E-02  0.19255149E-02 -0.25693964E-02
 -0.12878178E-01  0.51506791E-03 -0.11240883E-02
 -0.16675924E-03 -0.27770940E-02 -0.13979354E-02
  0.20403043E-02  0.56416859E-03  0.87745951E-03
 -0.28992913E-02 -0.42184099E-02 -0.45165984E-03
  0.17771028E-02 -0.12555378E-01  0.95315906E-02
 -0.39499467E-02 -0.89762902E-02 -0.72148146E-02
 -0.41548834E-02 -0.27108058E-02  0.49199917E-02
  0.95393439E-03  0.83134543E-02  0.17465668E-02
 -0.27326978E-02 -0.62643458E-02 -0.20777492E-02
 -0.94340244E-02  0.16587194E-02  0.25537577E-02
 -0.18360027E-02 -0.73649986E-03  0.10595820E-03
  0.91370349E-02  0.89233110E-03 -0.10299599E-01
  0.51019147E-02 -0.22703610E-02  0.20175861E-02
  0.10220473E-01 -0.56354019E-02 -0.24746840E-02
  0.44350670E-02 -0.92388872E-02  0.66045247E-03
  0.12208565E-01  0.44222612E-03  0.55027284E-02
 -0.18472622E-02  0.85511894E-03 -0.49750599E-02
 -0.10905233E-01 -0.42239774E-02  0.32080883E-02
  0.19658495E-02  0.74451210E-03  0.53470580E-02
  0.50287971E-03  0.83007266E-02  0.10173299E-02
  0.80024622E-03 -0.11804751E-01 -0.71269868E-02
 -0.43740432E-03 -0.78476820E-02 -0.53988216E-02
  0.15247562E-02 -0.55663966E-02 -0.46195878E-02
 -0.49483590E-02  0.24375676E-02 -0.19906369E-02
  0.31853672E-04  0.13368528E-01  0.16758947E-02
  0.38042377E-02  0.70808640E-02  0.54812952E-03
  0.18840723E-02 -0.44461864E-02  0.81341295E-03
  0.92384386E-02  0.35770060E-02  0.15417813E-02
  0.51112381E-02  0.35871154E-02  0.11152978E-02
 -0.12131330E-02 -0.24949169E-02  0.59100107E-02
  0.63809809E-02  0.93049320E-03  0.39342077E-02
 -0.79703346E-02  0.33576102E-02  0.49522195E-02
  0.17424730E-02 -0.18094494E-02 -0.39358070E-02
  0.23254850E-03 -0.56922011E-02  0.16957303E-03
 -0.63794624E-02 -0.74746467E-02 -0.57311161E-03
 -0.70504824E-03 -0.60622848E-02 -0.65515332E-02
  0.33649866E-02  0.58434747E-02 -0.91584160E-04
  0.21459438E-02  0.54649604E-02 -0.41206751E-02
  0.18798729E-02  0.51367732E-03  0.85885053E-02
  0.27625194E-02 -0.53668761E-03  0.17741524E-02
  0.67712886E-02  0.11622612E-03  0.14519541E-02
  0.63219833E-02 -0.27469807E-02 -0.67829280E-02
 -0.22202170E-02  0.49277084E-02 -0.87805619E-03
 -0.80068053E-02  0.50221359E-03  0.21936376E-02
  0.31966425E-02  0.24964252E-02  0.56969730E-02
 -0.32866749E-02 -0.63814811E-02  0.85930934E-02
  0.40217216E-02 -0.60049590E-02  0.16737498E-02
 -0.31030471E-03 -0.48659228E-02  0.15123135E-02
 -0.44013466E-02  0.34835505E-02 -0.58954992E-02
  0.59522454E-02  0.74898165E-02 -0.10798674E-01
  0.51568752E-02 -0.17642682E-02  0.66469852E-05
  0.55258922E-02  0.11097242E-02  0.10947846E-01
 -0.30773735E-02 -0.24438570E-02 -0.11791536E-02
  0.95674022E-02 -0.29361909E-02  0.46683949E-02
  0.14111449E-01 -0.61307419E-02  0.38161340E-02
 -0.44718253E-02  0.31212577E-02 -0.29575212E-02
  0.24231185E-02 -0.77045296E-03  0.11192271E-02
 -0.20406269E-02  0.53813841E-02 -0.21363707E-02
 -0.40917291E-02  0.17472238E-02  0.26060353E-02
 -0.92651873E-03 -0.13945389E-02  0.79185621E-03
  0.92687846E-02  0.15156057E-02 -0.10856419E-01
 -0.15542452E-01  0.92111219E-03 -0.37982729E-02
 -0.25851561E-02 -0.10924492E-02  0.78168624E-02
 -0.52227463E-02  0.12384627E-01  0.36992623E-05
 -0.44734543E-02 -0.17755650E-02  0.25660553E-02
 -0.43505069E-02 -0.50400109E-02 -0.11216655E-01
 -0.30892250E-03  0.60998163E-02 -0.24027152E-02
  0.54148364E-03 -0.26026807E-02  0.34781103E-02
  0.51053992E-02  0.58778691E-02  0.35440837E-04
 -0.30995615E-02 -0.30468049E-02 -0.44794000E-02
  0.13764182E-01  0.50630307E-02  0.62892115E-02
 -0.40703301E-02  0.59544765E-02  0.49748258E-03
  0.61831279E-02 -0.55124763E-02 -0.50803689E-02
 -0.60213976E-02  0.10703980E-01  0.57511786E-02
  0.79435640E-02  0.25535652E-02 -0.82049690E-03
 -0.86073093E-02 -0.39208770E-03  0.48451114E-02
  0.18479440E-02  0.40570475E-02  0.68666006E-02
 -0.83973504E-02 -0.98864762E-02  0.17420431E-02
 -0.47524180E-02 -0.27219884E-02  0.21750774E-02
  0.19890952E-02 -0.86006615E-03  0.62319924E-02
  0.45913004E-02 -0.86056376E-03 -0.17294050E-02
  0.20480869E-02 -0.46427688E-02 -0.76191259E-02
 -0.73363316E-02 -0.36326728E-02  0.25032633E-02
 -0.58888681E-02 -0.59431322E-02  0.29220940E-02
 -0.22220909E-02 -0.64518810E-02  0.68888794E-02
  0.73285609E-02  0.66056210E-02 -0.12215728E-02
 -0.18519175E-02 -0.38339971E-02 -0.48749434E-02
  0.31765127E-02 -0.94097916E-02 -0.48115798E-02
 -0.12046286E-02  0.25359939E-02 -0.46989099E-02
 -0.42873755E-02  0.13614973E-02 -0.15175103E-02
  0.76117069E-03  0.12884237E-01  0.34348821E-02
  0.65766976E-02  0.28011081E-02  0.20028466E-02
 -0.12196319E-02  0.82391994E-02 -0.52902485E-02

           1
   2.0000000000000000     
  0.10000000E+01  0.00000000E+00  0.00000000E+00  0.00000000E+00
  0.13941677E+00  0.67740463E+00  0.89904313E+00
  0.81028339E+00  0.85773281E+00  0.90270613E+00
  0.57822295E+00  0.77891974E+00  0.79437651E+00
  0.66184117E+00  0.89069360E+00  0.13731206E+00
  0.95598738E+00  0.53061154E+00  0.17795725E+00
  0.18375352E+00  0.55601779E+00  0.28027717E+00
  0.73210904E+00  0.15034738E+00  0.34125219E+00
  0.58979771E-01  0.94254761E+00  0.31799676E+00
  0.72157400E+00  0.46017749E+00  0.19303721E+00
  0.94914205E-01  0.92408742E+00  0.77216404E+00
  0.50608597E+00  0.79958673E+00  0.45146927E+00
  0.17276607E+00  0.80901470E+00  0.37170508E+00
  0.30900656E+00  0.87871701E+00  0.39597021E-01
  0.88602114E+00  0.29305037E-01  0.41391663E+00
  0.80867640E+00  0.83537856E+00  0.48272435E+00
  0.61278924E+00  0.97620650E+00  0.67814772E+00
  0.15835474E+00  0.88262205E+00  0.95107105E+00
  0.10418678E+00  0.57799949E+00  0.45664334E+00
  0.14171049E+00  0.76100865E+00  0.55658627E+00
  0.34444956E+00  0.87669096E+00  0.70530450E+00
  0.94432195E+00  0.70734574E+00  0.97669422E-01
  0.67887212E+00  0.13017256E+00  0.77437749E+00
  0.65925711E+00  0.58355032E+00  0.14385103E-01
  0.64237755E+00  0.12455852E+00  0.13284916E+00
  0.37599191E+00  0.20162664E+00  0.90056855E+00
  0.52542836E+00  0.77202292E+00  0.62259314E+00
  0.82603559E+00  0.99634535E+00  0.79449184E+00
  0.39504022E+00  0.77793090E+00  0.85977434E+00
  0.99411237E+00  0.84449235E+00  0.44780854E+00
  0.74630320E+00  0.31888078E+00  0.61713566E+00
  0.40861659E+00  0.64157174E+00  0.68288352E+00
  0.33655376E+00  0.38069260E+00  0.95679301E+00
  0.25417364E+00  0.10317074E-02  0.41654167E+00
  0.72855900E+00  0.30336390E+00  0.72409016E-01
  0.85197717E+00  0.59748271E+00  0.37615828E+00
  0.43657023E+00  0.26520165E+00  0.28534654E+00
  0.63311358E+00  0.89041084E+00  0.36711261E+00
  0.25645003E+00  0.52028122E+00  0.61238186E+00
  0.15287328E+00  0.76391619E+00  0.72344882E+00
  0.68163316E+00  0.41181232E-02  0.49534009E+00
  0.55657317E+00  0.16312151E+00  0.60978353E+00
  0.97142861E+00  0.86509385E+00  0.67157851E+00
  0.39527932E+00  0.60689301E+00  0.30253169E+00
  0.73654342E+00  0.68116864E+00  0.50480229E+00
  0.21726852E+00  0.34226916E+00  0.81367048E+00
  0.64141081E+00  0.29679741E+00  0.27404386E+00
  0.72690271E-01  0.20294300E+00  0.16710322E+00
  0.85483398E+00  0.23747406E+00  0.22394608E+00
  0.43206075E+00  0.41711087E+00  0.15746365E+00
  0.46649268E+00  0.99677851E+00  0.52009359E+00
  0.98826593E+00  0.15977701E+00  0.33743031E+00
  0.25960058E+00  0.25212240E+00  0.10799790E+00
  0.32753699E+00  0.97586587E+00  0.87863875E+00
  0.95067522E+00  0.73091980E+00  0.81015089E+00
  0.99358937E+00  0.37664058E+00  0.87797368E+00
  0.83021409E+00  0.98009485E+00  0.62570738E+00
  0.11307091E+00  0.95016953E+00  0.54730626E+00
  0.69097292E+00  0.75403499E+00  0.17355587E-03
  0.37093731E+00  0.43723845E+00  0.45402743E+00
  0.51225910E+00  0.38158679E+00  0.57474149E+00
  0.30299034E-01  0.38498038E+00  0.32498213E+00
  0.12948851E+00  0.83148017E+00  0.13069547E+00
  0.93728757E+00  0.89553590E+00  0.70713353E-01
  0.93189835E+00  0.10702944E+00  0.71345407E-01
  0.74805686E+00  0.65605263E+00  0.19723319E+00
  0.14176246E+00  0.64350238E+00  0.12571404E+00
  0.87307183E+00  0.48828554E+00  0.69841891E+00
  0.90956541E+00  0.37469385E+00  0.79492311E-01
  0.15937211E-01  0.73338929E+00  0.28036097E+00
  0.84915211E+00  0.83486416E+00  0.26900838E+00
  0.11586239E+00  0.13082199E+00  0.50730229E+00
  0.90186352E+00  0.23819762E+00  0.53305366E+00
  0.70609871E+00  0.49081919E+00  0.53657177E+00
  0.21394128E-01  0.53966948E+00  0.98189322E+00
  0.50475070E+00  0.78203715E+00  0.42818574E-01
  0.93476278E+00  0.69954514E+00  0.57981679E+00
  0.69319336E+00  0.59060236E+00  0.82507799E+00
  0.10858661E+00  0.42138398E+00  0.13423768E+00
  0.11263202E+00  0.19439635E-01  0.10378333E+00
  0.60632770E+00  0.49636837E+00  0.71138780E+00
  0.76211773E+00  0.13179034E+00  0.59694817E+00
  0.37584493E+00  0.17110670E+00  0.47251547E+00
  0.61443289E+00  0.23962853E+00  0.45496413E+00
  0.17170981E+00  0.48016322E+00  0.95391958E+00
  0.26416555E+00  0.51957222E+00  0.78276901E+00
  0.18778575E+00  0.21972037E+00  0.36719849E+00
  0.27561708E+00  0.85850098E-01  0.99382904E+00
  0.61225007E+00  0.64323507E+00  0.37305564E+00
  0.42960814E+00  0.87856451E+00  0.32572647E+00
  0.83198877E+00  0.63344772E+00  0.95118937E+00
  0.43250904E+00  0.30856754E-01  0.74750389E+00
  0.98641262E+00  0.84348182E-01  0.64899692E+00
  0.30880659E+00  0.70632583E+00  0.95713281E+00
  0.54918015E+00  0.14147260E+00  0.95400617E+00
  0.95102446E-01  0.27209214E+00  0.65411713E+00
  0.73394595E+00  0.78416994E+00  0.70363268E+00
  0.19714606E+00  0.53226193E-01  0.79123794E+00
  0.84750261E+00  0.41369781E-01  0.21614874E+00
  0.87362245E+00  0.19843472E+00  0.73059192E+00
  0.93509787E+00  0.44181937E+00  0.52778079E+00
  0.48184626E+00  0.57454536E+00  0.91067704E+00
  0.20042124E+00  0.36585993E+00  0.52251884E+00
  0.14468745E+00  0.26612998E+00  0.97310536E+00
  0.36600970E+00  0.23854042E+00  0.67963195E+00
  0.52338290E+00  0.27542612E+00  0.73064777E-01
  0.84312918E+00  0.39760597E+00  0.37712419E+00
  0.58933158E+00  0.97265675E+00  0.87830348E+00
  0.43028974E+00  0.43286989E+00  0.73949553E+00
  0.35183728E+00  0.55805966E+00  0.62652555E-01
  0.80468950E+00  0.45456348E+00  0.95272636E+00
  0.28369602E+00  0.53643965E-02  0.22864090E+00
  0.83085578E-01  0.54015337E+00  0.68398174E+00
  0.41835227E+00  0.92987961E-01  0.12015062E+00
  0.81787087E+00  0.16978441E+00  0.91847065E+00
  0.30083364E+00  0.86773516E+00  0.53315591E+00
  0.27712500E+00  0.39127179E+00  0.23950630E+00
  0.28281053E+00  0.57090029E-01  0.59410469E+00
  0.30279944E+00  0.66453341E+00  0.46805462E+00
  0.70392974E+00  0.34568215E+00  0.80904969E+00
  0.51116939E+00  0.58218165E+00  0.12216301E+00
  0.53885791E+00  0.97335544E-01  0.32152852E+00
  0.32277922E+00  0.75840235E+00  0.17267403E+00
  0.52229702E+00  0.21985238E+00  0.78436996E+00
  0.59636881E+00  0.75687306E+00  0.22878520E+00
  0.51836170E+00  0.94055554E+00  0.16361107E+00
  0.51855426E+00  0.59574783E+00  0.54253771E+00
  0.59216425E+00  0.40477543E+00  0.95441465E+00
  0.25387929E-01  0.29356198E-01  0.90580804E+00
 -0.53322674E-03  0.55317711E-03 -0.78497902E-04
 -0.51840457E-03  0.87870220E-03 -0.74161308E-03
  0.13172876E-03  0.75210395E-03 -0.11027130E-02
  0.32675138E-03 -0.15693230E-03 -0.88896345E-03
 -0.97122280E-03 -0.39021445E-03  0.50102998E-03
 -0.90217197E-03  0.10128206E-02  0.77169217E-04
 -0.20296964E-03 -0.13060065E-03 -0.12168709E-02
 -0.50111216E-04 -0.38297272E-03  0.11528793E-03
  0.41045188E-03  0.11809435E-02  0.12711639E-03
 -0.91073162E-03 -0.34295111E-04 -0.52295516E-03
  0.63608661E-03 -0.31712585E-03 -0.55811786E-04
  0.22308168E-03  0.31409754E-03  0.52686291E-03
 -0.35949644E-03  0.44036516E-03 -0.13769124E-03
 -0.16638777E-03 -0.35764437E-03  0.78046395E-03
 -0.66413531E-04  0.30258049E-03 -0.30921248E-03
 -0.41649146E-03  0.89933561E-03  0.10915269E-02
  0.77885927E-03 -0.44305693E-03  0.45759943E-03
  0.49102570E-03  0.30457104E-03 -0.17846758E-03
 -0.20632052E-03 -0.46674881E-04 -0.30809645E-03
  0.11304470E-02  0.44878535E-03 -0.12475397E-02
 -0.92551774E-03 -0.10262561E-03  0.44204561E-03
  0.57011830E-03 -0.26229304E-04  0.60496343E-03
 -0.11237343E-03 -0.39736368E-03  0.94269356E-03
  0.23994550E-03  0.37582624E-04 -0.31258010E-03
 -0.80390584E-03 -0.57919165E-03  0.13518210E-03
 -0.90877855E-03  0.49720839E-05  0.94279363E-03
 -0.21238141E-05  0.57666643E-03  0.59376769E-03
  0.44541165E-03 -0.90810496E-04 -0.69176840E-03
  0.30886089E-04  0.18201914E-03 -0.61682067E-04
  0.10052933E-03 -0.10662630E-02 -0.12059250E-03
 -0.33179648E-03  0.10809498E-03 -0.89606320E-03
  0.13971332E-02 -0.67065703E-03 -0.69572885E-04
 -0.95037936E-03  0.35976238E-03 -0.38669044E-03
 -0.10628132E-03 -0.17866135E-03  0.64367041E-03
 -0.57106272E-03  0.21673502E-03 -0.29021633E-03
 -0.14631450E-02  0.60783346E-04 -0.13053017E-03
 -0.30427255E-04 -0.31938907E-03 -0.14385808E-03
  0.22318195E-03  0.60113519E-04  0.11480821E-03
 -0.34295000E-03 -0.46665388E-03 -0.64165821E-04
  0.20882582E-03 -0.14354822E-02  0.10896170E-02
 -0.44545384E-03 -0.10196929E-02 -0.82102226E-03
 -0.46187340E-03 -0.30614411E-03  0.56991245E-03
  0.10392063E-03  0.95035541E-03  0.20307249E-03
 -0.30000014E-03 -0.70761770E-03 -0.25212363E-03
 -0.10734462E-02  0.19861153E-03  0.30581691E-03
 -0.20377084E-03 -0.91131328E-04  0.22383339E-04
  0.10387187E-02  0.92250822E-04 -0.11757278E-02
  0.58246673E-03 -0.27081266E-03  0.23405804E-03
  0.11532870E-02 -0.63940264E-03 -0.28284058E-03
  0.50280343E-03 -0.10479749E-02  0.76948722E-04
  0.13859185E-02  0.46124043E-04  0.62338128E-03
 -0.22544692E-03  0.10159528E-03 -0.57672106E-03
 -0.12583751E-02 -0.46260524E-03  0.36351933E-03
  0.22305054E-03  0.89439315E-04  0.60714579E-03
  0.59147578E-04  0.95114020E-03  0.12381127E-03
  0.91904670E-04 -0.13264968E-02 -0.79717640E-03
 -0.48551032E-04 -0.89286846E-03 -0.62306698E-03
  0.17675563E-03 -0.64493621E-03 -0.52637660E-03
 -0.56443265E-03  0.27560146E-03 -0.21632003E-03
 -0.16372540E-05  0.15319833E-02  0.19276900E-03
  0.42641030E-03  0.80992112E-03  0.60654653E-04
  0.21681783E-03 -0.50527952E-03  0.81189061E-04
  0.10539294E-02  0.40132899E-03  0.17682544E-03
  0.58293442E-03  0.40162867E-03  0.13614230E-03
 -0.14947291E-03 -0.28531500E-03  0.67839454E-03
  0.72245085E-03  0.10998441E-03  0.46101244E-03
 -0.89896373E-03  0.37911472E-03  0.55194765E-03
  0.18640651E-03 -0.19481166E-03 -0.45167809E-03
  0.24660608E-04 -0.63723800E-03  0.17561214E-04
 -0.72122436E-03 -0.85405477E-03 -0.66421618E-04
 -0.75257545E-04 -0.69727647E-03 -0.74709565E-03
  0.37057954E-03  0.66398029E-03  0.51448265E-05
  0.24155104E-03  0.62211172E-03 -0.46101161E-03
  0.23941466E-03  0.48741304E-04  0.97790477E-03
  0.32265261E-03 -0.56857556E-04  0.20881193E-03
  0.77115542E-03  0.27848594E-04  0.16360380E-03
  0.71552320E-03 -0.32331452E-03 -0.77117650E-03
 -0.25832442E-03  0.56960520E-03 -0.96239977E-04
 -0.91389318E-03  0.52633772E-04  0.24871124E-03
  0.36721948E-03  0.28487839E-03  0.65645861E-03
 -0.36392194E-03 -0.73601606E-03  0.98676550E-03
  0.45581182E-03 -0.69705861E-03  0.19679237E-03
 -0.32742014E-04 -0.56139705E-03  0.16988786E-03
 -0.51780647E-03  0.40029982E-03 -0.67344589E-03
  0.67714764E-03  0.83626021E-03 -0.12521683E-02
  0.57804129E-03 -0.20642385E-03  0.16374263E-04
  0.65091267E-03  0.12183832E-03  0.12326524E-02
 -0.35064466E-03 -0.26584486E-03 -0.13068447E-03
  0.11065783E-02 -0.34235454E-03  0.54175877E-03
  0.15921334E-02 -0.70819549E-03  0.43609944E-03
 -0.52124663E-03  0.33921400E-03 -0.32944881E-03
  0.26442473E-03 -0.79500903E-04  0.12537386E-03
 -0.21357626E-03  0.63417357E-03 -0.26858619E-03
 -0.47446387E-03  0.20644337E-03  0.29635892E-03
 -0.98603975E-04 -0.15923554E-03  0.82771850E-04
  0.10388731E-02  0.17125919E-03 -0.12308799E-02
 -0.17759143E-02  0.75654890E-04 -0.42354291E-03
 -0.28954192E-03 -0.11254506E-03  0.88672479E-03
 -0.59786324E-03  0.13976939E-02 -0.11791712E-04
 -0.52075848E-03 -0.20616464E-03  0.29207616E-03
 -0.49351688E-03 -0.57917575E-03 -0.12674996E-02
 -0.30815031E-04  0.70121459E-03 -0.26605508E-03
  0.74473923E-04 -0.28961859E-03  0.39923098E-03
  0.59373454E-03  0.66749630E-03  0.91592299E-05
 -0.34389624E-03 -0.34862247E-03 -0.52107656E-03
  0.15848223E-02  0.58747065E-03  0.72492793E-03
 -0.46619342E-03  0.69068371E-03  0.48231335E-04
  0.71004790E-03 -0.62201268E-03 -0.58752440E-03
 -0.65990622E-03  0.12195900E-02  0.65308347E-03
  0.90754800E-03  0.29578003E-03 -0.87191231E-04
 -0.97659039E-03 -0.43405451E-04  0.55717261E-03
  0.21963683E-03  0.45997134E-03  0.77763140E-03
 -0.96212029E-03 -0.11370400E-02  0.20009430E-03
 -0.53772307E-03 -0.31336561E-03  0.24034304E-03
  0.21640268E-03 -0.86386746E-04  0.71640610E-03
  0.53225034E-03 -0.96787402E-04 -0.21103230E-03
  0.23601255E-03 -0.53225324E-03 -0.88589095E-03
 -0.84178980E-03 -0.41488660E-03  0.28222532E-03
 -0.67636863E-03 -0.67207923E-03  0.33400568E-03
 -0.26886743E-03 -0.74489156E-03  0.77233602E-03
  0.83941206E-03  0.76253113E-03 -0.14048661E-03
 -0.21371055E-03 -0.42760811E-03 -0.56669100E-03
  0.36019429E-03 -0.10910889E-02 -0.54919550E-03
 -0.11931319E-03  0.29514434E-03 -0.53554958E-03
 -0.45730040E-03  0.14356332E-03 -0.17627731E-03
  0.86177564E-04  0.14768258E-02  0.39904303E-03
  0.75819993E-03  0.31521429E-03  0.23164633E-03
 -0.12897055E-03  0.92922053E-03 -0.60678269E-03
  0.00000000E+00  0.00000000E+00  0.00000000E+00
  0.00000000E+00  0.00000000E+00  0.00000000E+00
  0.00000000E+00  0.00000000E+00  0.00000000E+00
  0.00000000E+00  0.00000000E+00  0.00000000E+00
  0.00000000E+00  0.00000000E+00  0.00000000E+00
  0.00000000E+00  0.00000000E+00  0.00000000E+00
  0.00000000E+00  0.00000000E+00  0.00000000E+00
  0.00000000E+00  0.00000000E+00  0.00000000E+00
  0.00000000E+00  0.00000000E+00  0.00000000E+00
  0.00000000E+00  0.00000000E+00  0.00000000E+00
  0.00000000E+00  0.00000000E+00  0.00000000E+00
  0.00000000E+00  0.00000000E+00  0.00000000E+00
  0.00000000E+00  0.00000000E+00  0.00000000E+00
  0.00000000E+00  0.00000000E+00  0.00000000E+00
  0.00000000E+00  0.00000000E+00  0.00000000E+00
  0.00000000E+00  0.00000000E+00  0.00000000E+00
  0.00000000E+00  0.00000000E+00  0.00000000E+00
  0.00000000E+00  0.00000000E+00  0.00000000E+00
  0.00000000E+00  0.00000000E+00  0.00000000E+00
  0.00000000E+00  0.00000000E+00  0.00000000E+00
  0.00000000E+00  0.00000000E+00  0.00000000E+00
  0.00000000E+00  0.00000000E+00  0.00000000E+00
  0.00000000E+00  0.00000000E+00  0.00000000E+00
  0.00000000E+00  0.00000000E+00  0.00000000E+00
  0.00000000E+00  0.00000000E+00  0.00000000E+00
  0.00000000E+00  0.00000000E+00  0.00000000E+00
  0.00000000E+00  0.00000000E+00  0.00000000E+00
  0.00000000E+00  0.00000000E+00  0.00000000E+00
  0.00000000E+00  0.00000000E+00  0.00000000E+00
  0.00000000E+00  0.00000000E+00  0.00000000E+00
  0.00000000E+00  0.00000000E+00  0.00000000E+00
  0.00000000E+00  0.00000000E+00  0.00000000E+00
  0.00000000E+00  0.00000000E+00  0.00000000E+00
  0.00000000E+00  0.00000000E+00  0.00000000E+00
  0.00000000E+00  0.00000000E+00  0.00000000E+00
  0.00000000E+00  0.00000000E+00  0.00000000E+00
  0.00000000E+00  0.00000000E+00  0.00000000E+00
  0.00000000E+00  0.00000000E+00  0.00000000E+00
  0.00000000E+00  0.00000000E+00  0.00000000E+00
  0.00000000E+00  0.00000000E+00  0.00000000E+00
  0.00000000E+00  0.00000000E+00  0.00000000E+00
  0.00000000E+00  0.00000000E+00  0.00000000E+00
  0.00000000E+00  0.00000000E+00  0.00000000E+00
  0.00000000E+00  0.00000000E+00  0.00000000E+00
  0.00000000E+00  0.00000000E+00  0.00000000E+00
  0.00000000E+00  0.00000000E+00  0.00000000E+00
  0.00000000E+00  0.00000000E+00  0.00000000E+00
  0.00000000E+00  0.00000000E+00  0.00000000E+00
  0.00000000E+00  0.00000000E+00  0.00000000E+00
  0.00000000E+00  0.00000000E+00  0.00000000E+00
  0.00000000E+00  0.00000000E+00  0.00000000E+00
  0.00000000E+00  0.00000000E+00  0.00000000E+00
  0.00000000E+00  0.00000000E+00  0.00000000E+00
  0.00000000E+00  0.00000000E+00  0.00000000E+00
  0.00000000E+00  0.00000000E+00  0.00000000E+00
  0.00000000E+00  0.00000000E+00  0.00000000E+00
  0.00000000E+00  0.00000000E+00  0.00000000E+00
  0.00000000E+00  0.00000000E+00  0.00000000E+00
  0.00000000E+00  0.00000000E+00  0.00000000E+00
  0.00000000E+00  0.00000000E+00  0.00000000E+00