   Na                                   
   17.542902809185136     
     1.0000000000000000    0.0000000000000000    0.0000000000000000
     0.0000000000000000    1.0000000000000000    0.0000000000000000
     0.0000000000000000    0.0000000000000000    1.0000000000000000
   Na
   128
Direct
  0.0673504104018589  0.7110879467476907  0.1026871255432490
  0.8718812761237906  0.0373568143929725  0.7788973784396183
  0.5863771826434296  0.6080585192803757  0.8324389116811978
  0.7771995115771925  0.0323723248664549  0.1191593189388897
  0.9158409378692806  0.5390851683207806  0.9619648582335317
  0.2619858927878184  0.3753199261865637  0.2735381443277075
  0.0178479798317628  0.2590407849112339  0.4841665955280890
  0.8720717570377857  0.2030940888204082  0.2767253217277548
  0.7361380687153861  0.7007394203121403  0.3604073314210604
  0.0874457175715720  0.8272327965645622  0.7590495142920721
  0.8524106495292109  0.8812688776191517  0.3649458142896190
  0.2552945965120770  0.5851953061409394  0.2323544459810975
  0.1395410773692782  0.9720008104904798  0.2092715256460100
  0.0591432047872552  0.0476074097567492  0.7433608558441261
  0.5488660069127616  0.6841801904512933  0.4912334046554436
  0.6918675214194535  0.9620243444460996  0.4312702441924329
  0.2456287468742575  0.9795595202909934  0.9121908613144962
  0.1092542697031240  0.5180605366006589  0.3851594321222699
  0.0563941835263891  0.5820323750891155  0.6773224896193131
  0.2129057230326093  0.9531445742812472  0.7034870485710814
  0.9752974058164441  0.9109083241039155  0.9591654673818253
  0.6908768782446806  0.1817628152949624  0.9387402757529983
  0.4087349855991695  0.5201237925020320  0.7894946658896302
  0.9345231376041108  0.0852844861331832  0.4223464843200901
  0.4774785365685805  0.9721394560700700  0.7643841491099470
  0.4522675815319577  0.6805059287631517  0.6800168178508736
  0.8895062629862768  0.1977682994888675  0.6402277028784420
  0.4302426980288377  0.9128845725124521  0.9504277096674644
  0.7671092841274364  0.6889775342435909  0.5206243506795269
  0.4907660410662677  0.5338628233921009  0.4605916061822619
  0.4425485978574719  0.7193224002945966  0.9171804062199599
  0.4693041864571733  0.1100911555669382  0.8903142858708584
  0.1805243574335066  0.7301467285360116  0.3974687288537340
  0.6376248105435218  0.3827865254037324  0.9671046730960092
  0.9257089316953409  0.5329350556488519  0.4056126773279031
  0.3506740172484709  0.9277308575593607  0.4287211686653309
  0.0758979209955898  0.1712514420466202  0.3122430376755240
  0.2044396093546415  0.6555427579709572  0.5765604214809648
  0.1885173654310301  0.7078504537044473  0.9006117816112611
  0.5200100120282369  0.9962598302337229  0.2677068050446751
  0.5860203890195370  0.0008613386597562  0.5724332201734665
  0.9183290848545325  0.7986885141179840  0.6562115819738634
  0.5904957637850617  0.5655251783428014  0.2906496205086481
  0.6203864975485550  0.5742095550621047  0.6506998749248240
  0.2572090992463141  0.3671671480411975  0.7474523177070390
  0.7338219011177579  0.0828480492767253  0.3072757163748924
  0.1051347097207208  0.2870212279369235  0.1703558127981445
  0.9416857008026305  0.3728150383373574  0.1125507409826851
  0.2015878188503891  0.2419421784573246  0.4228973748499444
  0.5561800418544898  0.8561102796758244  0.4034230174933308
  0.2146041751517498  0.0755607639919704  0.4959022846868952
  0.5333713702103692  0.1871406760486057  0.0602182341440861
  0.7660390932945678  0.9535351128320138  0.9421616466923198
  0.9844242917606231  0.6914399881165069  0.8465673426932726
  0.9756160970679616  0.1965599228820228  0.8393390267924001
  0.9724791130921024  0.9934331900983938  0.5843914031864759
  0.1325989104412729  0.8188107788133279  0.5788888392862345
  0.6718252070050985  0.7182052510977780  0.1321977474753279
  0.3199300875075291  0.5344488496328988  0.5878970025489098
  0.3238008372545177  0.2881149354790686  0.5820547050313432
  0.9177009038070826  0.6061729018901948  0.2279124623901015
  0.1150480296551520  0.9139665866690140  0.4001381462911786
  0.9696309126081599  0.0232498161449275  0.2407555887116246
  0.8521768354070995  0.1487868893833457  0.9898214393004382
  0.8170601427791609  0.7418897634486029  0.0013686209863838
  0.1108265125775143  0.7707926268130634  0.2369643344757748
  0.7336543448342808  0.5081400106340955  0.4735965032345019
  0.8407447614190914  0.3271518647645148  0.9506648425819442
  0.9569842635085896  0.7353704506574410  0.3672290917320156
  0.8706823133873051  0.7876678606267644  0.1701353272692417
  0.1519428969726194  0.2064138296910541  0.6723935562577383
  0.8157488106144403  0.3816690739220566  0.6896892756454419
  0.6118387391930441  0.3331945312436313  0.3570305580338199
  0.9223887807927343  0.4905823835381256  0.7884991254263581
  0.6513113287459554  0.8195568534237497  0.9388937132353145
  0.9963353410620721  0.6612261561502472  0.5152110275855353
  0.7522388460556975  0.5985198014512878  0.9134021476373546
  0.0886182731889424  0.4843521155353159  0.1577590164955263
  0.1739910305381804  0.1069046005239535  0.0879745041767143
  0.3304372870900187  0.7859752870488593  0.7700713245310511
  0.5902803907191363  0.2916737500005481  0.5684277861864022
  0.3718599728966887  0.1023614306619797  0.4897882676570084
  0.4162564229991841  0.3119714788733507  0.4336885814012973
  0.0685821365345091  0.3805351226911575  0.9938636654503205
  0.0795643785123820  0.5424381397529817  0.8566629421397361
  0.4200346683454027  0.2379105543363915  0.2436340359350783
  0.3459222915069299  0.0438898531016823  0.0834808250020396
  0.6911948701877768  0.8859270193051177  0.2430720408456975
  0.2899602480455712  0.8194954863990358  0.2622051812293043
  0.7932204847737554  0.7860547314433732  0.7956111271871761
  0.6062098919897123  0.7978233043015555  0.7483982623030931
  0.3211841966323313  0.1068652347823298  0.7529503824589487
  0.1490532579935547  0.8824250245636682  0.0222856978224369
  0.7554786962711328  0.2486351536041355  0.1177632781651866
  0.9304384604362421  0.4578415317074007  0.5683395077984668
  0.8150393958581276  0.6058796045404319  0.6976609603605727
  0.1480051998778544  0.2312806279258550  0.8942974668361768
  0.9851413872963726  0.1608647451110624  0.0972756475918445
  0.7391284192598533  0.2827086278439285  0.7865523322643367
  0.8229491051532145  0.2972208714392377  0.4233986655679458
  0.2423919178621207  0.7384958463633065  0.0781724959170055
  0.1455935864746564  0.3924515504478751  0.5523484419685205
  0.3349378603900739  0.2933726629739202  0.0780593480713401
  0.5301780023499870  0.2067936254637159  0.7000379264091514
  0.6392380579347869  0.3505338338078453  0.1704807669652331
  0.7918791313921314  0.4215301057407579  0.2639710879611135
  0.6755144947543932  0.0271787770238060  0.7796869861764754
  0.2469661599954047  0.6134488114406078  0.7576512413547087
  0.2744041632738096  0.5036675026155850  0.9912525074173089
  0.7593882222942140  0.5342018524802260  0.0786133836394209
  0.2764146341604399  0.0693153429637766  0.2938882177856461
  0.0424370827082445  0.3363793887144168  0.7307332492570453
  0.5671277353315750  0.9854867089104089  0.0375396721861768
  0.5749256377288594  0.3874273208007707  0.7824037733150035
  0.3361192752208529  0.7744840132825825  0.5123413495843623
  0.0260721027083573  0.3581863579072418  0.3121832855176571
  0.3788003662631608  0.9757778148511469  0.6268871439163749
  0.3007869299318019  0.4432967315808063  0.4474435821362285
  0.4435836120087470  0.4241101708642967  0.6318245311250708
  0.5701100932001495  0.5339125915471362  0.0491887234881608
  0.7348360675070365  0.8822702517548640  0.5897368587496516
  0.4584796169995308  0.4454458797683803  0.2163401271054448
  0.5816532290014663  0.1609236615711247  0.4359897756262396
  0.4585493252659339  0.6497968383946751  0.2003214702357965
  0.4613238574867643  0.8522396173904178  0.1466747660350407
  0.3617200243579823  0.6313238538445395  0.4173651846746831
  0.4321007389259943  0.3419291736086023  0.8913820266824231
  0.0525663504138287  0.0795989904016449  0.9258734193451411
